(set-info :Origin "This instance was generated by: BanditFuzz-- an RL fuzzer for SMT solvers" )
(set-info :Author "Joe Scott, Fed Mora, Vijay Ganesh" )
(set-info :Contact "Joe Scott, joseph.scott@uwaterloo.ca")
(set-logic QF_BV)
(declare-const bool_0 Bool)
(declare-const bool_1 Bool)
(declare-const bool_2 Bool)
(declare-const bool_3 Bool)
(declare-const bool_4 Bool)
(declare-const bv_0 (_ BitVec 32))
(declare-const bv_1 (_ BitVec 32))
(declare-const bv_2 (_ BitVec 32))
(declare-const bv_3 (_ BitVec 32))
(declare-const bv_4 (_ BitVec 32))
(assert (bvslt (bvsub (bvsub bv_1 #xfd5ba75b ) (bvnor #xaed88272  bv_3)) (bvashr (bvxor #x97d442a8  bv_4) (bvsub #x03e15929  #x7484cab3 ))))
(assert (bvule (bvshl (bvmul #x1856874d  bv_2) (bvsrem #x8e7ef0a8  bv_0)) (bvand (bvshl #xb58d8385  #x8f3b5ebc ) (bvxnor bv_2 bv_4))))
(assert (bvslt (bvlshr (bvnor #x5e72675b  #x186330b9 ) (bvsdiv bv_2 bv_2)) (bvand (bvxor #xcc60de66  #x9943db6e ) (bvurem #x2c5f89f6  bv_1))))
(assert (bvule (bvnand (bvsub bv_0 #xd24f6129 ) (bvudiv #x5e8f13ae  bv_4)) (bvmul (bvsmod #x42fa6b18  #x6778d1ce ) (bvurem #x2f351e7c  #x5f0b3a03 ))))
(assert (bvsle (bvsdiv (bvlshr #x55b10031  bv_3) (bvsub bv_4 #xf4c78dd9 )) (bvurem (bvor #xc52fc913  #x03bb3377 ) (bvnor bv_3 bv_0))))
(check-sat)
(exit)
